
******************************************************************************
This program contains Ipopt, a library for large-scale nonlinear optimization.
 Ipopt is released as open source code under the Eclipse Public License (EPL).
         For more information visit https://github.com/coin-or/Ipopt
******************************************************************************

This is Ipopt version 3.14.4, running with linear solver MUMPS 5.4.1.

Number of nonzeros in equality constraint Jacobian...:       64
Number of nonzeros in inequality constraint Jacobian.:       24
Number of nonzeros in Lagrangian Hessian.............:        0

Total number of variables............................:        8
                     variables with only lower bounds:        0
                variables with lower and upper bounds:        0
                     variables with only upper bounds:        0
Total number of equality constraints.................:        8
Total number of inequality constraints...............:        3
        inequality constraints with only lower bounds:        3
   inequality constraints with lower and upper bounds:        0
        inequality constraints with only upper bounds:        0

iter    objective    inf_pr   inf_du lg(mu)  ||d||  lg(rg) alpha_du alpha_pr  ls
   0  1.6218398e+01 1.36e+01 2.65e+01   0.0 0.00e+00    -  0.00e+00 0.00e+00   0
   1  1.9703635e+01 4.39e+00 2.54e+01  -0.1 1.62e+00    -  1.00e+00 6.91e-01h  1
   2  1.9650077e+01 3.58e-01 1.62e+00  -1.5 1.47e+00    -  1.00e+00 9.90e-01h  1
   3  1.9179846e+01 4.74e-02 2.09e+03  -0.7 4.98e-01    -  6.98e-01 1.00e+00f  1
   4  1.8640908e+01 6.57e-02 1.78e+02  -2.4 7.22e-01    -  1.00e+00 8.13e-01f  1
   5  1.7975600e+01 8.91e-02 7.96e-01  -3.1 7.15e-01    -  1.00e+00 1.00e+00f  1
   6  1.7129624e+01 3.73e-01 7.01e-01  -4.4 1.46e+00    -  1.00e+00 1.00e+00f  1
   7  1.6598789e+01 3.58e-01 4.96e-01  -5.5 1.31e+00    -  1.00e+00 1.00e+00h  1
   8  1.6554864e+01 1.14e-01 2.49e-01  -4.9 7.65e-01    -  1.00e+00 1.00e+00h  1
   9  1.6758809e+01 2.66e-02 3.19e-01  -5.9 3.40e-01    -  1.00e+00 1.00e+00h  1
iter    objective    inf_pr   inf_du lg(mu)  ||d||  lg(rg) alpha_du alpha_pr  ls
  10  1.6839467e+01 9.96e-04 1.38e-01  -7.4 7.38e-02    -  1.00e+00 1.00e+00h  1
  11  1.6828582e+01 1.31e-03 1.46e-01  -9.6 8.00e-02    -  1.00e+00 1.00e+00h  1
  12  1.6815895e+01 1.79e-03 4.50e-01 -11.0 8.62e-02    -  1.00e+00 1.00e+00h  1
  13  1.6736230e+01 1.66e-02 3.18e-01 -11.0 2.83e-01    -  1.00e+00 1.00e+00f  1
  14  1.6847027e+01 6.24e-04 1.26e-01 -11.0 5.77e-02    -  1.00e+00 1.00e+00h  1
  15  1.5753233e+01 3.21e+00 2.28e+02  -9.0 1.80e+01    -  1.00e+00 2.07e-01f  1
  16  1.5106192e+01 2.89e+00 3.62e-01  -8.9 3.82e+00    -  1.00e+00 1.00e+00h  1
  17  1.6681430e+01 2.36e-02 5.58e-01  -8.9 9.68e-01    -  1.00e+00 1.00e+00h  1
  18  1.6894458e+01 1.28e-03 3.13e-01  -7.7 6.02e-01    -  1.00e+00 1.00e+00H  1
  19  1.6604528e+01 8.06e-02 4.35e-01  -7.9 6.31e-01    -  1.00e+00 1.00e+00f  1
iter    objective    inf_pr   inf_du lg(mu)  ||d||  lg(rg) alpha_du alpha_pr  ls
  20  1.6738723e+01 2.45e-02 3.05e-01  -9.0 3.33e-01    -  1.00e+00 1.00e+00h  1
  21  1.6831167e+01 3.42e-03 1.78e-01  -9.1 1.33e-01    -  1.00e+00 1.00e+00h  1
  22  1.6809377e+01 4.63e-03 5.99e-01  -9.1 1.47e-01    -  1.00e+00 1.00e+00h  1
  23  1.6834843e+01 2.57e-03 4.57e-01 -10.5 1.12e-01    -  1.00e+00 1.00e+00h  1
  24  1.6782309e+01 2.84e-03 1.29e-01 -10.6 1.14e-01    -  1.00e+00 1.00e+00h  1
  25  1.6838152e+01 1.28e-04 1.32e-01 -11.0 2.53e-02    -  1.00e+00 1.00e+00h  1
  26  1.5745773e+01 3.05e+00 2.63e+02  -9.7 3.99e+01    -  1.00e+00 9.17e-02f  1
  27  1.5415210e+01 2.44e+00 8.27e+01 -10.2 3.48e+00    -  1.66e-04 1.00e+00h  1
  28  1.6592576e+01 1.99e-01 5.72e-01 -11.0 1.05e+00    -  1.00e+00 1.00e+00h  1
  29  1.6672263e+01 6.27e-02 3.08e-01 -11.0 5.50e-01    -  1.00e+00 1.00e+00h  1
iter    objective    inf_pr   inf_du lg(mu)  ||d||  lg(rg) alpha_du alpha_pr  ls
  30  1.6797863e+01 1.22e-02 6.06e-01 -11.0 2.52e-01    -  1.00e+00 1.00e+00h  1
  31  1.6832828e+01 7.59e-03 4.54e-01 -11.0 1.92e-01    -  1.00e+00 1.00e+00h  1
  32  1.6740577e+01 8.46e-03 1.15e-01 -11.0 1.98e-01    -  1.00e+00 1.00e+00h  1
  33  1.6847676e+01 3.30e-04 1.25e-01 -11.0 4.12e-02    -  1.00e+00 1.00e+00h  1
  34  1.5752669e+01 3.23e+00 4.37e+01 -11.0 1.61e+01    -  3.87e-01 2.32e-01f  1
  35  1.7832333e+01 4.14e-01 2.32e+02 -11.0 1.14e+00    -  3.89e-11 1.00e+00h  1
  36  1.2663453e+01 5.92e+00 1.85e+02 -11.0 1.67e+01    -  1.00e+00 3.63e-01f  1
  37  1.0710509e+01 2.97e+00 1.05e+00 -10.2 4.11e+00    -  1.00e+00 1.00e+00f  1
  38  1.6898701e+01 2.99e-02 4.59e+03  -2.8 1.12e+00    -  6.90e-01 1.00e+00h  1
  39  1.5918918e+01 1.08e+00 3.53e+00  -2.3 2.38e+00    -  1.00e+00 1.00e+00f  1
iter    objective    inf_pr   inf_du lg(mu)  ||d||  lg(rg) alpha_du alpha_pr  ls
  40  1.4812991e+01 6.89e-01 4.55e-01  -2.7 1.82e+00    -  1.00e+00 1.00e+00h  1
  41  1.6762723e+01 2.34e-02 6.35e-01  -4.7 5.03e-01    -  1.00e+00 1.00e+00h  1
  42  1.6847054e+01 2.62e-02 3.78e-01  -4.5 3.58e-01    -  1.00e+00 1.00e+00h  1
  43  1.6670780e+01 2.99e-02 1.89e-01  -4.5 3.76e-01    -  1.00e+00 1.00e+00h  1
  44  1.6862005e+01 8.33e-04 1.09e-01  -5.8 6.82e-02    -  1.00e+00 1.00e+00h  1
  45  1.5764853e+01 3.53e+00 5.58e+00  -6.0 1.51e+01    -  5.48e-01 2.58e-01f  1
  46  1.6930321e+01 1.07e+00 6.15e+00  -6.0 2.02e+00    -  2.84e-06 1.00e+00h  1
  47  1.5266680e+01 2.38e+00 9.42e-01  -6.0 3.59e+00    -  1.00e+00 1.00e+00f  1
  48  1.6460484e+01 4.52e-01 3.14e-01  -6.0 1.77e+00    -  1.00e+00 1.00e+00h  1
  49  1.6777447e+01 3.91e-02 5.65e-01  -6.8 5.49e-01    -  1.00e+00 1.00e+00h  1
iter    objective    inf_pr   inf_du lg(mu)  ||d||  lg(rg) alpha_du alpha_pr  ls
  50  1.6796674e+01 3.35e-02 2.30e-01  -6.9 4.01e-01    -  1.00e+00 1.00e+00h  1
  51  1.6825250e+01 1.73e-03 4.47e-01  -6.9 9.66e-02    -  1.00e+00 1.00e+00h  1
  52  1.6803180e+01 1.22e-03 1.52e-01  -8.6 7.40e-02    -  1.00e+00 1.00e+00h  1
  53  1.6833145e+01 5.82e-05 1.37e-01 -10.5 1.70e-02    -  1.00e+00 1.00e+00h  1
  54  1.5742161e+01 2.97e+00 1.09e+02 -10.1 7.16e+00    -  1.00e+00 5.05e-01f  1
  55  1.5064433e+01 2.84e+00 8.15e+01 -10.3 3.83e+00    -  7.84e-05 1.00e+00h  1
  56  1.6686491e+01 2.59e-02 5.40e-01 -10.3 9.71e-01    -  1.00e+00 1.00e+00h  1
  57  1.6907333e+01 5.57e-04 2.88e-01 -10.3 5.52e-01    -  1.00e+00 1.00e+00H  1
  58  1.6647420e+01 6.57e-02 4.17e-01 -10.3 5.70e-01    -  1.00e+00 1.00e+00f  1
  59  1.6864417e+01 1.68e-03 1.08e-01 -11.0 1.01e-01    -  1.00e+00 1.00e+00h  1
iter    objective    inf_pr   inf_du lg(mu)  ||d||  lg(rg) alpha_du alpha_pr  ls
  60  1.5767110e+01 3.59e+00 1.56e+01 -11.0 4.36e+01    -  1.44e-01 8.99e-02f  1
  61  1.7785728e+01 4.88e-01 2.60e+02 -11.0 1.24e+00    -  3.84e-11 1.00e+00h  1
  62  1.2657625e+01 5.89e+00 1.93e+02 -11.0 1.75e+01    -  1.00e+00 3.43e-01f  1
  63  9.5283840e+00 3.73e+00 8.62e+01 -11.0 4.46e+00    -  2.49e-11 1.00e+00h  1
  64  1.6936254e+01 7.42e-02 2.00e+00 -10.9 1.11e+00    -  1.00e+00 1.00e+00h  1
  65  1.3802850e+01 4.19e+00 8.12e+00 -11.0 4.97e+00    -  1.00e+00 1.00e+00f  1
  66  1.3893133e+01 2.49e+00 1.58e+02 -11.0 3.53e+00    -  4.21e-01 1.00e+00h  1
  67  1.6609822e+01 6.80e-02 7.08e-01 -11.0 8.07e-01    -  1.00e+00 1.00e+00h  1
  68  1.6863412e+01 8.36e-03 2.86e-01 -11.0 7.85e-01    -  1.00e+00 1.00e+00H  1
  69  1.6845432e+01 5.71e-03 1.28e-01 -11.0 1.66e-01    -  1.00e+00 1.00e+00h  1
iter    objective    inf_pr   inf_du lg(mu)  ||d||  lg(rg) alpha_du alpha_pr  ls
  70  1.6818069e+01 8.27e-03 4.51e-01 -11.0 1.99e-01    -  1.00e+00 1.00e+00h  1
  71  1.6791332e+01 4.99e-03 1.35e-01 -11.0 1.53e-01    -  1.00e+00 1.00e+00h  1
  72  1.6834333e+01 2.40e-04 1.38e-01 -11.0 3.49e-02    -  1.00e+00 1.00e+00h  1
  73  1.6779275e+01 2.75e-02 2.63e+00 -11.0 3.60e-01    -  1.00e+00 1.00e+00f  1
  74  1.6786379e+01 2.44e-02 2.44e+02 -11.0 3.11e-01    -  1.00e+00 1.25e-01h  4
  75  1.6790194e+01 2.17e-02 2.44e+02 -11.0 3.13e-01    -  1.00e+00 1.25e-01h  4
  76  1.6791103e+01 1.93e-02 2.44e+02 -11.0 3.15e-01    -  1.00e+00 1.25e-01h  4
  77  1.6791263e+01 1.87e-02 2.69e+02 -11.0 2.76e-01    -  1.00e+00 3.12e-02h  6
  78  1.6789179e+01 1.59e-02 3.29e-01 -11.0 2.77e-01    -  1.00e+00 1.00e+00h  1
  79  1.6831542e+01 7.46e-04 1.44e-01 -11.0 6.29e-02    -  1.00e+00 1.00e+00h  1
iter    objective    inf_pr   inf_du lg(mu)  ||d||  lg(rg) alpha_du alpha_pr  ls
  80  1.6821977e+01 9.86e-04 4.54e-01 -11.0 6.69e-02    -  1.00e+00 1.00e+00h  1
  81  1.6823806e+01 5.50e-04 1.42e-01 -11.0 5.10e-02    -  1.00e+00 1.00e+00h  1
  82  1.6827534e+01 6.45e-05 4.57e-01 -11.0 1.21e-02    -  1.00e+00 1.00e+00h  1
  83  1.6825064e+01 1.39e-04 1.43e-01 -11.0 9.26e-03    -  1.00e+00 1.00e+00h  1
  84  1.6828537e+01 9.80e-07 1.42e-01 -11.0 2.19e-03    -  1.00e+00 1.00e+00h  1
Cannot recompute multipliers for feasibility problem.  Error in eq_mult_calculator

Number of Iterations....: 84

                                   (scaled)                 (unscaled)
Objective...............:   1.6828536562071303e+01    1.6828536562071303e+01
Dual infeasibility......:   9.2310296941050601e+03    9.2310296941050601e+03
Constraint violation....:   9.7969341223108874e-07    9.7969341223108874e-07
Variable bound violation:   0.0000000000000000e+00    0.0000000000000000e+00
Complementarity.........:   0.0000000000000000e+00    0.0000000000000000e+00
Overall NLP error.......:   9.7969341223108874e-07    9.2310296941050601e+03


Number of objective function evaluations             = 102
Number of objective gradient evaluations             = 85
Number of equality constraint evaluations            = 102
Number of inequality constraint evaluations          = 102
Number of equality constraint Jacobian evaluations   = 85
Number of inequality constraint Jacobian evaluations = 85
Number of Lagrangian Hessian evaluations             = 0
Total seconds in IPOPT                               = 1.347

EXIT: Optimal Solution Found.
